50
    41    18    65    37    13    57    79    30    22    82    48    16    33    65     8    97    78    68     9    21    52    45    19    73    17    40    19    80   100    86     8     9    95    10    97    67    60    27    17     4    20    42    13     9    64    54    43    11    48    50
     9     6    10     2     2     3     2     4     3     2     7    10     4     1     7    10     7     8     2     6     6     7     4     1    10     9     1     2     2     2     5     8     3     3     4     8     3     4    10     5     3     4     9     4     3     3     1     3     2     2
  1182   215  1091  1463  1376     0     0   442     0  1012     0   829  1240   929  1417     0  1159   932     0   962  1115     0   957   109   878     0     0   955  1392     0  1371  1074     0  1274   811   373     0   543  1377   208     0   390   524  1423   998     0     0  1306  1280   345
